(set-info :status sat)
(declare-const symbol_4 (_ BitVec 32))
(declare-const symbol_23 (_ BitVec 32))
(declare-const symbol_15 (_ BitVec 32))
(declare-const symbol_0 (_ BitVec 32))
(declare-const symbol_11 (_ BitVec 32))
(declare-const symbol_6 (_ BitVec 32))
(declare-const symbol_18 (_ BitVec 32))
(declare-const symbol_21 (_ BitVec 32))
(declare-const symbol_19 (_ BitVec 32))
(declare-const symbol_2 (_ BitVec 32))
(declare-const symbol_13 (_ BitVec 32))
(declare-const symbol_8 (_ BitVec 32))
(assert (not (= symbol_23 (_ bv4 32))))
(assert (not (not (= symbol_21 (_ bv4 32)))))
(assert (not (not (= symbol_19 (_ bv4 32)))))
(assert (not (not (= symbol_18 (_ bv4 32)))))
(assert (not (not (= symbol_15 (_ bv4 32)))))
(assert (not (not (= symbol_13 (_ bv4 32)))))
(assert (not (not (= symbol_11 (_ bv4 32)))))
(assert (not (not (= symbol_8 (_ bv4 32)))))
(assert (not (not (= symbol_6 (_ bv4 32)))))
(assert (not (not (= symbol_4 (_ bv4 32)))))
(assert (not (not (= symbol_2 (_ bv4 32)))))
(assert (not (not (= symbol_0 (_ bv6 32)))))
(assert (not (= symbol_0 (_ bv4 32))))
(check-sat)